minizinc/sudoku_problems2/sudoku_p6.dzn
%
% sudoku_p6.dzn
% See http://www.hakank.org/minizinc/sudoku_gcc.mzn
% 
% This problem is problem 6 from
% Gecode's sudoku.cpp
% http://www.gecode.org/gecode-doc-latest/sudoku_8cpp-source.html
% 
x = array2d(1..n, 1..n, [   
% Puzzle 1 from http://www.sudoku.org.uk/bifurcation.htm
% 6
  1,  _,  _,  9,  _,  7,  _,  _,  3,
  _,  8,  _,  _,  _,  _,  _,  7,  _,
  _,  _,  9,  _,  _,  _,  6,  _,  _,
  _,  _,  7,  2,  _,  9,  4,  _,  _,
  4,  1,  _,  _,  _,  _,  _,  9,  5,
  _,  _,  8,  5,  _,  4,  3,  _,  _,
  _,  _,  3,  _,  _,  _,  7,  _,  _,
  _,  5,  _,  _,  _,  _,  _,  4,  _,
  2,  _,  _,  8,  _,  6,  _,  _,  9
]);

n = 9;


